<number of tasks>
20

<cycle time>
1000

<order strength>
0,805


<task times>
1 575
2 457
3 602
4 555
5 647
6 536
7 673
8 453
9 776
10 577
11 666
12 479
13 498
14 473
15 477
16 339
17 556
18 399
19 254
20 592

<precedence relations>
1,3
2,10
3,4
3,5
4,6
4,7
5,6
5,7
5,8
6,9
6,10
7,9
8,10
9,11
9,12
9,13
10,11
10,12
10,13
11,15
11,17
12,14
13,17
14,17
15,16
15,19
16,18
16,20
17,19
17,20

<end>
